NAME : 10_3_3_3_(26).dat
COMMENT : Henke, Speranza, Wäscher, 2015
TYPE : MCVRP
DIMENSION : 11
EDGE_WEIGHT_TYPE : DISTANCE_MATRIX
CAPACITY : 1000
VEHICLES : 2
PRODUCT TYPES : 3
COMPARTMENTS : 3
NODE_COORD_SECTION
1 50 50
2 48.04 11.49
3 12.4 24.31
4 17.15 65.43
5 37.18 4.95
6 75.17 86.43
7 6.06 86.98
8 99.33 3.18
9 24.81 67.38
10 60.01 3.2
11 17.29 8.66
DEMAND_SECTION
1 0 0 0
2 117 40 37
3 9 45 39
4 126 25 37
5 24 96 41
6 5 43 50
7 113 45 34
8 98 14 22
9 71 40 18
10 27 56 5
11 125 24 3
DEPOT_SECTION
1
EOF